#=======================================================
# FHI-aims file: assets/exploratory_analysis/structures/Geo_ZB_AlSb.in
# Created using the Atomic Simulation Environment (ASE)
# Mon Mar 30 10:54:21 2020
#=======================================================
lattice_vector 0.0000000000000000 9.1679999999999993 9.1679999999999993 
lattice_vector 9.1679999999999993 0.0000000000000000 9.1679999999999993 
lattice_vector 9.1679999999999993 9.1679999999999993 0.0000000000000000 
atom 0.0000000000000000 0.0000000000000000 0.0000000000000000 Al
atom 1.5280000000000000 1.5280000000000000 1.5280000000000000 Sb
atom 3.0560000000000000 3.0560000000000000 0.0000000000000000 Al
atom 4.5839999999999996 4.5839999999999996 1.5280000000000000 Sb
atom 6.1120000000000001 6.1120000000000001 0.0000000000000000 Al
atom 7.6400000000000006 7.6400000000000006 1.5280000000000000 Sb
atom 3.0560000000000000 0.0000000000000000 3.0560000000000000 Al
atom 4.5839999999999996 1.5280000000000000 4.5839999999999996 Sb
atom 6.1120000000000001 3.0560000000000000 3.0560000000000000 Al
atom 7.6400000000000006 4.5839999999999996 4.5839999999999996 Sb
atom 9.1679999999999993 6.1120000000000001 3.0560000000000000 Al
atom 10.6959999999999997 7.6400000000000006 4.5839999999999996 Sb
atom 6.1120000000000001 0.0000000000000000 6.1120000000000001 Al
atom 7.6400000000000006 1.5280000000000000 7.6400000000000006 Sb
atom 9.1679999999999993 3.0560000000000000 6.1120000000000001 Al
atom 10.6959999999999997 4.5839999999999996 7.6400000000000006 Sb
atom 12.2240000000000002 6.1120000000000001 6.1120000000000001 Al
atom 13.7520000000000007 7.6400000000000006 7.6400000000000006 Sb
atom 0.0000000000000000 3.0560000000000000 3.0560000000000000 Al
atom 1.5280000000000000 4.5839999999999996 4.5839999999999996 Sb
atom 3.0560000000000000 6.1120000000000001 3.0560000000000000 Al
atom 4.5839999999999996 7.6400000000000006 4.5839999999999996 Sb
atom 6.1120000000000001 9.1679999999999993 3.0560000000000000 Al
atom 7.6400000000000006 10.6959999999999997 4.5839999999999996 Sb
atom 3.0560000000000000 3.0560000000000000 6.1120000000000001 Al
atom 4.5839999999999996 4.5839999999999996 7.6400000000000006 Sb
atom 6.1120000000000001 6.1120000000000001 6.1120000000000001 Al
atom 7.6400000000000006 7.6400000000000006 7.6400000000000006 Sb
atom 9.1679999999999993 9.1679999999999993 6.1120000000000001 Al
atom 10.6959999999999997 10.6959999999999997 7.6400000000000006 Sb
atom 6.1120000000000001 3.0560000000000000 9.1679999999999993 Al
atom 7.6400000000000006 4.5839999999999996 10.6959999999999997 Sb
atom 9.1679999999999993 6.1120000000000001 9.1679999999999993 Al
atom 10.6959999999999997 7.6400000000000006 10.6959999999999997 Sb
atom 12.2240000000000002 9.1679999999999993 9.1679999999999993 Al
atom 13.7520000000000007 10.6959999999999997 10.6959999999999997 Sb
atom 0.0000000000000000 6.1120000000000001 6.1120000000000001 Al
atom 1.5280000000000000 7.6400000000000006 7.6400000000000006 Sb
atom 3.0560000000000000 9.1679999999999993 6.1120000000000001 Al
atom 4.5839999999999996 10.6959999999999997 7.6400000000000006 Sb
atom 6.1120000000000001 12.2240000000000002 6.1120000000000001 Al
atom 7.6400000000000006 13.7520000000000007 7.6400000000000006 Sb
atom 3.0560000000000000 6.1120000000000001 9.1679999999999993 Al
atom 4.5839999999999996 7.6400000000000006 10.6959999999999997 Sb
atom 6.1120000000000001 9.1679999999999993 9.1679999999999993 Al
atom 7.6400000000000006 10.6959999999999997 10.6959999999999997 Sb
atom 9.1679999999999993 12.2240000000000002 9.1679999999999993 Al
atom 10.6959999999999997 13.7520000000000007 10.6959999999999997 Sb
atom 6.1120000000000001 6.1120000000000001 12.2240000000000002 Al
atom 7.6400000000000006 7.6400000000000006 13.7520000000000007 Sb
atom 9.1679999999999993 9.1679999999999993 12.2240000000000002 Al
atom 10.6959999999999997 10.6959999999999997 13.7520000000000007 Sb
atom 12.2240000000000002 12.2240000000000002 12.2240000000000002 Al
atom 13.7520000000000007 13.7520000000000007 13.7520000000000007 Sb
