#=======================================================
# FHI-aims file: assets/exploratory_analysis/structures/Geo_ZB_Ge2.in
# Created using the Atomic Simulation Environment (ASE)
# Mon Mar 30 10:54:24 2020
#=======================================================
lattice_vector 0.0000000000000000 8.4390000000000018 8.4390000000000018 
lattice_vector 8.4390000000000018 0.0000000000000000 8.4390000000000018 
lattice_vector 8.4390000000000018 8.4390000000000018 0.0000000000000000 
atom 0.0000000000000000 0.0000000000000000 0.0000000000000000 Ge
atom 1.4065000000000001 1.4065000000000001 1.4065000000000001 Ge
atom 2.8130000000000006 2.8130000000000006 0.0000000000000000 Ge
atom 4.2195000000000009 4.2195000000000009 1.4065000000000001 Ge
atom 5.6260000000000012 5.6260000000000012 0.0000000000000000 Ge
atom 7.0325000000000015 7.0325000000000015 1.4065000000000001 Ge
atom 2.8130000000000006 0.0000000000000000 2.8130000000000006 Ge
atom 4.2195000000000009 1.4065000000000001 4.2195000000000009 Ge
atom 5.6260000000000012 2.8130000000000006 2.8130000000000006 Ge
atom 7.0325000000000015 4.2195000000000009 4.2195000000000009 Ge
atom 8.4390000000000018 5.6260000000000012 2.8130000000000006 Ge
atom 9.8455000000000013 7.0325000000000015 4.2195000000000009 Ge
atom 5.6260000000000012 0.0000000000000000 5.6260000000000012 Ge
atom 7.0325000000000015 1.4065000000000001 7.0325000000000015 Ge
atom 8.4390000000000018 2.8130000000000006 5.6260000000000012 Ge
atom 9.8455000000000013 4.2195000000000009 7.0325000000000015 Ge
atom 11.2520000000000024 5.6260000000000012 5.6260000000000012 Ge
atom 12.6585000000000019 7.0325000000000015 7.0325000000000015 Ge
atom 0.0000000000000000 2.8130000000000006 2.8130000000000006 Ge
atom 1.4065000000000001 4.2195000000000009 4.2195000000000009 Ge
atom 2.8130000000000006 5.6260000000000012 2.8130000000000006 Ge
atom 4.2195000000000009 7.0325000000000015 4.2195000000000009 Ge
atom 5.6260000000000012 8.4390000000000018 2.8130000000000006 Ge
atom 7.0325000000000015 9.8455000000000013 4.2195000000000009 Ge
atom 2.8130000000000006 2.8130000000000006 5.6260000000000012 Ge
atom 4.2195000000000009 4.2195000000000009 7.0325000000000015 Ge
atom 5.6260000000000012 5.6260000000000012 5.6260000000000012 Ge
atom 7.0325000000000015 7.0325000000000015 7.0325000000000015 Ge
atom 8.4390000000000018 8.4390000000000018 5.6260000000000012 Ge
atom 9.8455000000000013 9.8455000000000013 7.0325000000000015 Ge
atom 5.6260000000000012 2.8130000000000006 8.4390000000000018 Ge
atom 7.0325000000000015 4.2195000000000009 9.8455000000000013 Ge
atom 8.4390000000000018 5.6260000000000012 8.4390000000000018 Ge
atom 9.8455000000000013 7.0325000000000015 9.8455000000000013 Ge
atom 11.2520000000000024 8.4390000000000018 8.4390000000000018 Ge
atom 12.6585000000000019 9.8455000000000013 9.8455000000000013 Ge
atom 0.0000000000000000 5.6260000000000012 5.6260000000000012 Ge
atom 1.4065000000000001 7.0325000000000015 7.0325000000000015 Ge
atom 2.8130000000000006 8.4390000000000018 5.6260000000000012 Ge
atom 4.2195000000000009 9.8455000000000013 7.0325000000000015 Ge
atom 5.6260000000000012 11.2520000000000024 5.6260000000000012 Ge
atom 7.0325000000000015 12.6585000000000019 7.0325000000000015 Ge
atom 2.8130000000000006 5.6260000000000012 8.4390000000000018 Ge
atom 4.2195000000000009 7.0325000000000015 9.8455000000000013 Ge
atom 5.6260000000000012 8.4390000000000018 8.4390000000000018 Ge
atom 7.0325000000000015 9.8455000000000013 9.8455000000000013 Ge
atom 8.4390000000000018 11.2520000000000024 8.4390000000000018 Ge
atom 9.8455000000000013 12.6585000000000019 9.8455000000000013 Ge
atom 5.6260000000000012 5.6260000000000012 11.2520000000000024 Ge
atom 7.0325000000000015 7.0325000000000015 12.6585000000000019 Ge
atom 8.4390000000000018 8.4390000000000018 11.2520000000000024 Ge
atom 9.8455000000000013 9.8455000000000013 12.6585000000000019 Ge
atom 11.2520000000000024 11.2520000000000024 11.2520000000000024 Ge
atom 12.6585000000000019 12.6585000000000019 12.6585000000000019 Ge
