#=======================================================
# FHI-aims file: assets/exploratory_analysis/structures/Geo_RS_IK.in
# Created using the Atomic Simulation Environment (ASE)
# Mon Mar 30 10:54:25 2020
#=======================================================
lattice_vector 0.0000000000000000 10.2240000000000002 10.2240000000000002 
lattice_vector 10.2240000000000002 0.0000000000000000 10.2240000000000002 
lattice_vector 10.2240000000000002 10.2240000000000002 0.0000000000000000 
atom 0.0000000000000000 0.0000000000000000 0.0000000000000000 K
atom 3.4079999999999999 3.4079999999999999 3.4079999999999999 I
atom 3.4079999999999999 3.4079999999999999 0.0000000000000000 K
atom 6.8159999999999998 6.8159999999999998 3.4079999999999999 I
atom 6.8159999999999998 6.8159999999999998 0.0000000000000000 K
atom 10.2240000000000002 10.2240000000000002 3.4079999999999999 I
atom 3.4079999999999999 0.0000000000000000 3.4079999999999999 K
atom 6.8159999999999998 3.4079999999999999 6.8159999999999998 I
atom 6.8159999999999998 3.4079999999999999 3.4079999999999999 K
atom 10.2240000000000002 6.8159999999999998 6.8159999999999998 I
atom 10.2240000000000002 6.8159999999999998 3.4079999999999999 K
atom 13.6319999999999997 10.2240000000000002 6.8159999999999998 I
atom 6.8159999999999998 0.0000000000000000 6.8159999999999998 K
atom 10.2240000000000002 3.4079999999999999 10.2240000000000002 I
atom 10.2240000000000002 3.4079999999999999 6.8159999999999998 K
atom 13.6319999999999997 6.8159999999999998 10.2240000000000002 I
atom 13.6319999999999997 6.8159999999999998 6.8159999999999998 K
atom 17.0399999999999991 10.2240000000000002 10.2240000000000002 I
atom 0.0000000000000000 3.4079999999999999 3.4079999999999999 K
atom 3.4079999999999999 6.8159999999999998 6.8159999999999998 I
atom 3.4079999999999999 6.8159999999999998 3.4079999999999999 K
atom 6.8159999999999998 10.2240000000000002 6.8159999999999998 I
atom 6.8159999999999998 10.2240000000000002 3.4079999999999999 K
atom 10.2240000000000002 13.6319999999999997 6.8159999999999998 I
atom 3.4079999999999999 3.4079999999999999 6.8159999999999998 K
atom 6.8159999999999998 6.8159999999999998 10.2240000000000002 I
atom 6.8159999999999998 6.8159999999999998 6.8159999999999998 K
atom 10.2240000000000002 10.2240000000000002 10.2240000000000002 I
atom 10.2240000000000002 10.2240000000000002 6.8159999999999998 K
atom 13.6319999999999997 13.6319999999999997 10.2240000000000002 I
atom 6.8159999999999998 3.4079999999999999 10.2240000000000002 K
atom 10.2240000000000002 6.8159999999999998 13.6319999999999997 I
atom 10.2240000000000002 6.8159999999999998 10.2240000000000002 K
atom 13.6319999999999997 10.2240000000000002 13.6319999999999997 I
atom 13.6319999999999997 10.2240000000000002 10.2240000000000002 K
atom 17.0399999999999991 13.6319999999999997 13.6319999999999997 I
atom 0.0000000000000000 6.8159999999999998 6.8159999999999998 K
atom 3.4079999999999999 10.2240000000000002 10.2240000000000002 I
atom 3.4079999999999999 10.2240000000000002 6.8159999999999998 K
atom 6.8159999999999998 13.6319999999999997 10.2240000000000002 I
atom 6.8159999999999998 13.6319999999999997 6.8159999999999998 K
atom 10.2240000000000002 17.0399999999999991 10.2240000000000002 I
atom 3.4079999999999999 6.8159999999999998 10.2240000000000002 K
atom 6.8159999999999998 10.2240000000000002 13.6319999999999997 I
atom 6.8159999999999998 10.2240000000000002 10.2240000000000002 K
atom 10.2240000000000002 13.6319999999999997 13.6319999999999997 I
atom 10.2240000000000002 13.6319999999999997 10.2240000000000002 K
atom 13.6319999999999997 17.0399999999999991 13.6319999999999997 I
atom 6.8159999999999998 6.8159999999999998 13.6319999999999997 K
atom 10.2240000000000002 10.2240000000000002 17.0399999999999991 I
atom 10.2240000000000002 10.2240000000000002 13.6319999999999997 K
atom 13.6319999999999997 13.6319999999999997 17.0399999999999991 I
atom 13.6319999999999997 13.6319999999999997 13.6319999999999997 K
atom 17.0399999999999991 17.0399999999999991 17.0399999999999991 I
