#=======================================================
# FHI-aims file: tmp/Geo_RS_RbF.in
# Created using the Atomic Simulation Environment (ASE)
# Thu Jul 11 06:31:26 2019
#=======================================================
lattice_vector 0.0000000000000000 8.1960000000000015 8.1960000000000015 
lattice_vector 8.1960000000000015 0.0000000000000000 8.1960000000000015 
lattice_vector 8.1960000000000015 8.1960000000000015 0.0000000000000000 
atom 0.0000000000000000 0.0000000000000000 0.0000000000000000 Rb
atom 2.7320000000000002 2.7320000000000002 2.7320000000000002 F
atom 2.7320000000000007 2.7320000000000007 0.0000000000000000 Rb
atom 5.4640000000000004 5.4640000000000004 2.7320000000000002 F
atom 5.4640000000000013 5.4640000000000013 0.0000000000000000 Rb
atom 8.1960000000000015 8.1960000000000015 2.7320000000000002 F
atom 2.7320000000000007 0.0000000000000000 2.7320000000000007 Rb
atom 5.4640000000000004 2.7320000000000002 5.4640000000000004 F
atom 5.4640000000000013 2.7320000000000007 2.7320000000000007 Rb
atom 8.1960000000000015 5.4640000000000004 5.4640000000000004 F
atom 8.1960000000000015 5.4640000000000013 2.7320000000000007 Rb
atom 10.9280000000000008 8.1960000000000015 5.4640000000000004 F
atom 5.4640000000000013 0.0000000000000000 5.4640000000000013 Rb
atom 8.1960000000000015 2.7320000000000002 8.1960000000000015 F
atom 8.1960000000000015 2.7320000000000007 5.4640000000000013 Rb
atom 10.9280000000000008 5.4640000000000004 8.1960000000000015 F
atom 10.9280000000000026 5.4640000000000013 5.4640000000000013 Rb
atom 13.6600000000000037 8.1960000000000015 8.1960000000000015 F
atom 0.0000000000000000 2.7320000000000007 2.7320000000000007 Rb
atom 2.7320000000000002 5.4640000000000004 5.4640000000000004 F
atom 2.7320000000000007 5.4640000000000013 2.7320000000000007 Rb
atom 5.4640000000000004 8.1960000000000015 5.4640000000000004 F
atom 5.4640000000000013 8.1960000000000015 2.7320000000000007 Rb
atom 8.1960000000000015 10.9280000000000008 5.4640000000000004 F
atom 2.7320000000000007 2.7320000000000007 5.4640000000000013 Rb
atom 5.4640000000000004 5.4640000000000004 8.1960000000000015 F
atom 5.4640000000000013 5.4640000000000013 5.4640000000000013 Rb
atom 8.1960000000000015 8.1960000000000015 8.1960000000000015 F
atom 8.1960000000000015 8.1960000000000015 5.4640000000000013 Rb
atom 10.9280000000000008 10.9280000000000008 8.1960000000000015 F
atom 5.4640000000000013 2.7320000000000007 8.1960000000000015 Rb
atom 8.1960000000000015 5.4640000000000004 10.9280000000000008 F
atom 8.1960000000000015 5.4640000000000013 8.1960000000000015 Rb
atom 10.9280000000000008 8.1960000000000015 10.9280000000000008 F
atom 10.9280000000000026 8.1960000000000015 8.1960000000000015 Rb
atom 13.6600000000000037 10.9280000000000008 10.9280000000000008 F
atom 0.0000000000000000 5.4640000000000013 5.4640000000000013 Rb
atom 2.7320000000000002 8.1960000000000015 8.1960000000000015 F
atom 2.7320000000000007 8.1960000000000015 5.4640000000000013 Rb
atom 5.4640000000000004 10.9280000000000008 8.1960000000000015 F
atom 5.4640000000000013 10.9280000000000026 5.4640000000000013 Rb
atom 8.1960000000000015 13.6600000000000037 8.1960000000000015 F
atom 2.7320000000000007 5.4640000000000013 8.1960000000000015 Rb
atom 5.4640000000000004 8.1960000000000015 10.9280000000000008 F
atom 5.4640000000000013 8.1960000000000015 8.1960000000000015 Rb
atom 8.1960000000000015 10.9280000000000008 10.9280000000000008 F
atom 8.1960000000000015 10.9280000000000026 8.1960000000000015 Rb
atom 10.9280000000000008 13.6600000000000037 10.9280000000000008 F
atom 5.4640000000000013 5.4640000000000013 10.9280000000000026 Rb
atom 8.1960000000000015 8.1960000000000015 13.6600000000000037 F
atom 8.1960000000000015 8.1960000000000015 10.9280000000000026 Rb
atom 10.9280000000000008 10.9280000000000008 13.6600000000000037 F
atom 10.9280000000000026 10.9280000000000026 10.9280000000000026 Rb
atom 13.6600000000000037 13.6600000000000037 13.6600000000000037 F
