#=======================================================
# FHI-aims file: assets/exploratory_analysis/structures/Geo_ZB_GeSi.in
# Created using the Atomic Simulation Environment (ASE)
# Mon Mar 30 10:54:24 2020
#=======================================================
lattice_vector 0.0000000000000000 8.2515000000000018 8.2515000000000018 
lattice_vector 8.2515000000000018 0.0000000000000000 8.2515000000000018 
lattice_vector 8.2515000000000018 8.2515000000000018 0.0000000000000000 
atom 0.0000000000000000 0.0000000000000000 0.0000000000000000 Ge
atom 1.3752500000000001 1.3752500000000001 1.3752500000000001 Si
atom 2.7505000000000006 2.7505000000000006 0.0000000000000000 Ge
atom 4.1257500000000009 4.1257500000000009 1.3752500000000001 Si
atom 5.5010000000000012 5.5010000000000012 0.0000000000000000 Ge
atom 6.8762500000000015 6.8762500000000015 1.3752500000000001 Si
atom 2.7505000000000006 0.0000000000000000 2.7505000000000006 Ge
atom 4.1257500000000009 1.3752500000000001 4.1257500000000009 Si
atom 5.5010000000000012 2.7505000000000006 2.7505000000000006 Ge
atom 6.8762500000000015 4.1257500000000009 4.1257500000000009 Si
atom 8.2515000000000018 5.5010000000000012 2.7505000000000006 Ge
atom 9.6267500000000013 6.8762500000000015 4.1257500000000009 Si
atom 5.5010000000000012 0.0000000000000000 5.5010000000000012 Ge
atom 6.8762500000000015 1.3752500000000001 6.8762500000000015 Si
atom 8.2515000000000018 2.7505000000000006 5.5010000000000012 Ge
atom 9.6267500000000013 4.1257500000000009 6.8762500000000015 Si
atom 11.0020000000000024 5.5010000000000012 5.5010000000000012 Ge
atom 12.3772500000000019 6.8762500000000015 6.8762500000000015 Si
atom 0.0000000000000000 2.7505000000000006 2.7505000000000006 Ge
atom 1.3752500000000001 4.1257500000000009 4.1257500000000009 Si
atom 2.7505000000000006 5.5010000000000012 2.7505000000000006 Ge
atom 4.1257500000000009 6.8762500000000015 4.1257500000000009 Si
atom 5.5010000000000012 8.2515000000000018 2.7505000000000006 Ge
atom 6.8762500000000015 9.6267500000000013 4.1257500000000009 Si
atom 2.7505000000000006 2.7505000000000006 5.5010000000000012 Ge
atom 4.1257500000000009 4.1257500000000009 6.8762500000000015 Si
atom 5.5010000000000012 5.5010000000000012 5.5010000000000012 Ge
atom 6.8762500000000015 6.8762500000000015 6.8762500000000015 Si
atom 8.2515000000000018 8.2515000000000018 5.5010000000000012 Ge
atom 9.6267500000000013 9.6267500000000013 6.8762500000000015 Si
atom 5.5010000000000012 2.7505000000000006 8.2515000000000018 Ge
atom 6.8762500000000015 4.1257500000000009 9.6267500000000013 Si
atom 8.2515000000000018 5.5010000000000012 8.2515000000000018 Ge
atom 9.6267500000000013 6.8762500000000015 9.6267500000000013 Si
atom 11.0020000000000024 8.2515000000000018 8.2515000000000018 Ge
atom 12.3772500000000019 9.6267500000000013 9.6267500000000013 Si
atom 0.0000000000000000 5.5010000000000012 5.5010000000000012 Ge
atom 1.3752500000000001 6.8762500000000015 6.8762500000000015 Si
atom 2.7505000000000006 8.2515000000000018 5.5010000000000012 Ge
atom 4.1257500000000009 9.6267500000000013 6.8762500000000015 Si
atom 5.5010000000000012 11.0020000000000024 5.5010000000000012 Ge
atom 6.8762500000000015 12.3772500000000019 6.8762500000000015 Si
atom 2.7505000000000006 5.5010000000000012 8.2515000000000018 Ge
atom 4.1257500000000009 6.8762500000000015 9.6267500000000013 Si
atom 5.5010000000000012 8.2515000000000018 8.2515000000000018 Ge
atom 6.8762500000000015 9.6267500000000013 9.6267500000000013 Si
atom 8.2515000000000018 11.0020000000000024 8.2515000000000018 Ge
atom 9.6267500000000013 12.3772500000000019 9.6267500000000013 Si
atom 5.5010000000000012 5.5010000000000012 11.0020000000000024 Ge
atom 6.8762500000000015 6.8762500000000015 12.3772500000000019 Si
atom 8.2515000000000018 8.2515000000000018 11.0020000000000024 Ge
atom 9.6267500000000013 9.6267500000000013 12.3772500000000019 Si
atom 11.0020000000000024 11.0020000000000024 11.0020000000000024 Ge
atom 12.3772500000000019 12.3772500000000019 12.3772500000000019 Si
