#=======================================================
# FHI-aims file: assets/exploratory_analysis/structures/Geo_RS_BrLi.in
# Created using the Atomic Simulation Environment (ASE)
# Mon Mar 30 10:54:25 2020
#=======================================================
lattice_vector 0.0000000000000000 7.9665000000000017 7.9665000000000017 
lattice_vector 7.9665000000000017 0.0000000000000000 7.9665000000000017 
lattice_vector 7.9665000000000017 7.9665000000000017 0.0000000000000000 
atom 0.0000000000000000 0.0000000000000000 0.0000000000000000 Li
atom 2.6555000000000000 2.6555000000000000 2.6555000000000000 Br
atom 2.6555000000000004 2.6555000000000004 0.0000000000000000 Li
atom 5.3109999999999999 5.3109999999999999 2.6555000000000000 Br
atom 5.3110000000000008 5.3110000000000008 0.0000000000000000 Li
atom 7.9665000000000008 7.9665000000000008 2.6555000000000000 Br
atom 2.6555000000000004 0.0000000000000000 2.6555000000000004 Li
atom 5.3109999999999999 2.6555000000000000 5.3109999999999999 Br
atom 5.3110000000000008 2.6555000000000004 2.6555000000000004 Li
atom 7.9665000000000008 5.3109999999999999 5.3109999999999999 Br
atom 7.9665000000000017 5.3110000000000008 2.6555000000000004 Li
atom 10.6220000000000017 7.9665000000000008 5.3109999999999999 Br
atom 5.3110000000000008 0.0000000000000000 5.3110000000000008 Li
atom 7.9665000000000008 2.6555000000000000 7.9665000000000008 Br
atom 7.9665000000000017 2.6555000000000004 5.3110000000000008 Li
atom 10.6220000000000017 5.3109999999999999 7.9665000000000008 Br
atom 10.6220000000000017 5.3110000000000008 5.3110000000000008 Li
atom 13.2775000000000016 7.9665000000000008 7.9665000000000008 Br
atom 0.0000000000000000 2.6555000000000004 2.6555000000000004 Li
atom 2.6555000000000000 5.3109999999999999 5.3109999999999999 Br
atom 2.6555000000000004 5.3110000000000008 2.6555000000000004 Li
atom 5.3109999999999999 7.9665000000000008 5.3109999999999999 Br
atom 5.3110000000000008 7.9665000000000017 2.6555000000000004 Li
atom 7.9665000000000008 10.6220000000000017 5.3109999999999999 Br
atom 2.6555000000000004 2.6555000000000004 5.3110000000000008 Li
atom 5.3109999999999999 5.3109999999999999 7.9665000000000008 Br
atom 5.3110000000000008 5.3110000000000008 5.3110000000000008 Li
atom 7.9665000000000008 7.9665000000000008 7.9665000000000008 Br
atom 7.9665000000000017 7.9665000000000017 5.3110000000000008 Li
atom 10.6220000000000017 10.6220000000000017 7.9665000000000008 Br
atom 5.3110000000000008 2.6555000000000004 7.9665000000000017 Li
atom 7.9665000000000008 5.3109999999999999 10.6220000000000017 Br
atom 7.9665000000000017 5.3110000000000008 7.9665000000000017 Li
atom 10.6220000000000017 7.9665000000000008 10.6220000000000017 Br
atom 10.6220000000000017 7.9665000000000017 7.9665000000000017 Li
atom 13.2775000000000016 10.6220000000000017 10.6220000000000017 Br
atom 0.0000000000000000 5.3110000000000008 5.3110000000000008 Li
atom 2.6555000000000000 7.9665000000000008 7.9665000000000008 Br
atom 2.6555000000000004 7.9665000000000017 5.3110000000000008 Li
atom 5.3109999999999999 10.6220000000000017 7.9665000000000008 Br
atom 5.3110000000000008 10.6220000000000017 5.3110000000000008 Li
atom 7.9665000000000008 13.2775000000000016 7.9665000000000008 Br
atom 2.6555000000000004 5.3110000000000008 7.9665000000000017 Li
atom 5.3109999999999999 7.9665000000000008 10.6220000000000017 Br
atom 5.3110000000000008 7.9665000000000017 7.9665000000000017 Li
atom 7.9665000000000008 10.6220000000000017 10.6220000000000017 Br
atom 7.9665000000000017 10.6220000000000017 7.9665000000000017 Li
atom 10.6220000000000017 13.2775000000000016 10.6220000000000017 Br
atom 5.3110000000000008 5.3110000000000008 10.6220000000000017 Li
atom 7.9665000000000008 7.9665000000000008 13.2775000000000016 Br
atom 7.9665000000000017 7.9665000000000017 10.6220000000000017 Li
atom 10.6220000000000017 10.6220000000000017 13.2775000000000016 Br
atom 10.6220000000000017 10.6220000000000017 10.6220000000000017 Li
atom 13.2775000000000016 13.2775000000000016 13.2775000000000016 Br
