#=======================================================
# FHI-aims file: assets/exploratory_analysis/structures/Geo_RS_BaTe.in
# Created using the Atomic Simulation Environment (ASE)
# Mon Mar 30 10:54:22 2020
#=======================================================
lattice_vector 0.0000000000000000 10.2930000000000010 10.2930000000000010 
lattice_vector 10.2930000000000010 0.0000000000000000 10.2930000000000010 
lattice_vector 10.2930000000000010 10.2930000000000010 0.0000000000000000 
atom 0.0000000000000000 0.0000000000000000 0.0000000000000000 Ba
atom 3.4310000000000000 3.4310000000000000 3.4310000000000000 Te
atom 3.4310000000000005 3.4310000000000005 0.0000000000000000 Ba
atom 6.8620000000000001 6.8620000000000001 3.4310000000000000 Te
atom 6.8620000000000010 6.8620000000000010 0.0000000000000000 Ba
atom 10.2930000000000010 10.2930000000000010 3.4310000000000000 Te
atom 3.4310000000000005 0.0000000000000000 3.4310000000000005 Ba
atom 6.8620000000000001 3.4310000000000000 6.8620000000000001 Te
atom 6.8620000000000010 3.4310000000000005 3.4310000000000005 Ba
atom 10.2930000000000010 6.8620000000000001 6.8620000000000001 Te
atom 10.2930000000000010 6.8620000000000010 3.4310000000000005 Ba
atom 13.7240000000000002 10.2930000000000010 6.8620000000000001 Te
atom 6.8620000000000010 0.0000000000000000 6.8620000000000010 Ba
atom 10.2930000000000010 3.4310000000000000 10.2930000000000010 Te
atom 10.2930000000000010 3.4310000000000005 6.8620000000000010 Ba
atom 13.7240000000000002 6.8620000000000001 10.2930000000000010 Te
atom 13.7240000000000020 6.8620000000000010 6.8620000000000010 Ba
atom 17.1550000000000011 10.2930000000000010 10.2930000000000010 Te
atom 0.0000000000000000 3.4310000000000005 3.4310000000000005 Ba
atom 3.4310000000000000 6.8620000000000001 6.8620000000000001 Te
atom 3.4310000000000005 6.8620000000000010 3.4310000000000005 Ba
atom 6.8620000000000001 10.2930000000000010 6.8620000000000001 Te
atom 6.8620000000000010 10.2930000000000010 3.4310000000000005 Ba
atom 10.2930000000000010 13.7240000000000002 6.8620000000000001 Te
atom 3.4310000000000005 3.4310000000000005 6.8620000000000010 Ba
atom 6.8620000000000001 6.8620000000000001 10.2930000000000010 Te
atom 6.8620000000000010 6.8620000000000010 6.8620000000000010 Ba
atom 10.2930000000000010 10.2930000000000010 10.2930000000000010 Te
atom 10.2930000000000010 10.2930000000000010 6.8620000000000010 Ba
atom 13.7240000000000002 13.7240000000000002 10.2930000000000010 Te
atom 6.8620000000000010 3.4310000000000005 10.2930000000000010 Ba
atom 10.2930000000000010 6.8620000000000001 13.7240000000000002 Te
atom 10.2930000000000010 6.8620000000000010 10.2930000000000010 Ba
atom 13.7240000000000002 10.2930000000000010 13.7240000000000002 Te
atom 13.7240000000000020 10.2930000000000010 10.2930000000000010 Ba
atom 17.1550000000000011 13.7240000000000002 13.7240000000000002 Te
atom 0.0000000000000000 6.8620000000000010 6.8620000000000010 Ba
atom 3.4310000000000000 10.2930000000000010 10.2930000000000010 Te
atom 3.4310000000000005 10.2930000000000010 6.8620000000000010 Ba
atom 6.8620000000000001 13.7240000000000002 10.2930000000000010 Te
atom 6.8620000000000010 13.7240000000000020 6.8620000000000010 Ba
atom 10.2930000000000010 17.1550000000000011 10.2930000000000010 Te
atom 3.4310000000000005 6.8620000000000010 10.2930000000000010 Ba
atom 6.8620000000000001 10.2930000000000010 13.7240000000000002 Te
atom 6.8620000000000010 10.2930000000000010 10.2930000000000010 Ba
atom 10.2930000000000010 13.7240000000000002 13.7240000000000002 Te
atom 10.2930000000000010 13.7240000000000020 10.2930000000000010 Ba
atom 13.7240000000000002 17.1550000000000011 13.7240000000000002 Te
atom 6.8620000000000010 6.8620000000000010 13.7240000000000020 Ba
atom 10.2930000000000010 10.2930000000000010 17.1550000000000011 Te
atom 10.2930000000000010 10.2930000000000010 13.7240000000000020 Ba
atom 13.7240000000000002 13.7240000000000002 17.1550000000000011 Te
atom 13.7240000000000020 13.7240000000000020 13.7240000000000020 Ba
atom 17.1550000000000011 17.1550000000000011 17.1550000000000011 Te
