#=======================================================
# FHI-aims file: assets/exploratory_analysis/structures/Geo_RS_ClCs.in
# Created using the Atomic Simulation Environment (ASE)
# Mon Mar 30 10:54:23 2020
#=======================================================
lattice_vector 0.0000000000000000 10.0950000000000006 10.0950000000000006 
lattice_vector 10.0950000000000006 0.0000000000000000 10.0950000000000006 
lattice_vector 10.0950000000000006 10.0950000000000006 0.0000000000000000 
atom 0.0000000000000000 0.0000000000000000 0.0000000000000000 Cs
atom 3.3650000000000002 3.3650000000000002 3.3650000000000002 Cl
atom 3.3650000000000002 3.3650000000000002 0.0000000000000000 Cs
atom 6.7300000000000004 6.7300000000000004 3.3650000000000002 Cl
atom 6.7300000000000004 6.7300000000000004 0.0000000000000000 Cs
atom 10.0950000000000006 10.0950000000000006 3.3650000000000002 Cl
atom 3.3650000000000002 0.0000000000000000 3.3650000000000002 Cs
atom 6.7300000000000004 3.3650000000000002 6.7300000000000004 Cl
atom 6.7300000000000004 3.3650000000000002 3.3650000000000002 Cs
atom 10.0950000000000006 6.7300000000000004 6.7300000000000004 Cl
atom 10.0950000000000006 6.7300000000000004 3.3650000000000002 Cs
atom 13.4600000000000009 10.0950000000000006 6.7300000000000004 Cl
atom 6.7300000000000004 0.0000000000000000 6.7300000000000004 Cs
atom 10.0950000000000006 3.3650000000000002 10.0950000000000006 Cl
atom 10.0950000000000006 3.3650000000000002 6.7300000000000004 Cs
atom 13.4600000000000009 6.7300000000000004 10.0950000000000006 Cl
atom 13.4600000000000009 6.7300000000000004 6.7300000000000004 Cs
atom 16.8250000000000028 10.0950000000000006 10.0950000000000006 Cl
atom 0.0000000000000000 3.3650000000000002 3.3650000000000002 Cs
atom 3.3650000000000002 6.7300000000000004 6.7300000000000004 Cl
atom 3.3650000000000002 6.7300000000000004 3.3650000000000002 Cs
atom 6.7300000000000004 10.0950000000000006 6.7300000000000004 Cl
atom 6.7300000000000004 10.0950000000000006 3.3650000000000002 Cs
atom 10.0950000000000006 13.4600000000000009 6.7300000000000004 Cl
atom 3.3650000000000002 3.3650000000000002 6.7300000000000004 Cs
atom 6.7300000000000004 6.7300000000000004 10.0950000000000006 Cl
atom 6.7300000000000004 6.7300000000000004 6.7300000000000004 Cs
atom 10.0950000000000006 10.0950000000000006 10.0950000000000006 Cl
atom 10.0950000000000006 10.0950000000000006 6.7300000000000004 Cs
atom 13.4600000000000009 13.4600000000000009 10.0950000000000006 Cl
atom 6.7300000000000004 3.3650000000000002 10.0950000000000006 Cs
atom 10.0950000000000006 6.7300000000000004 13.4600000000000009 Cl
atom 10.0950000000000006 6.7300000000000004 10.0950000000000006 Cs
atom 13.4600000000000009 10.0950000000000006 13.4600000000000009 Cl
atom 13.4600000000000009 10.0950000000000006 10.0950000000000006 Cs
atom 16.8250000000000028 13.4600000000000009 13.4600000000000009 Cl
atom 0.0000000000000000 6.7300000000000004 6.7300000000000004 Cs
atom 3.3650000000000002 10.0950000000000006 10.0950000000000006 Cl
atom 3.3650000000000002 10.0950000000000006 6.7300000000000004 Cs
atom 6.7300000000000004 13.4600000000000009 10.0950000000000006 Cl
atom 6.7300000000000004 13.4600000000000009 6.7300000000000004 Cs
atom 10.0950000000000006 16.8250000000000028 10.0950000000000006 Cl
atom 3.3650000000000002 6.7300000000000004 10.0950000000000006 Cs
atom 6.7300000000000004 10.0950000000000006 13.4600000000000009 Cl
atom 6.7300000000000004 10.0950000000000006 10.0950000000000006 Cs
atom 10.0950000000000006 13.4600000000000009 13.4600000000000009 Cl
atom 10.0950000000000006 13.4600000000000009 10.0950000000000006 Cs
atom 13.4600000000000009 16.8250000000000028 13.4600000000000009 Cl
atom 6.7300000000000004 6.7300000000000004 13.4600000000000009 Cs
atom 10.0950000000000006 10.0950000000000006 16.8250000000000028 Cl
atom 10.0950000000000006 10.0950000000000006 13.4600000000000009 Cs
atom 13.4600000000000009 13.4600000000000009 16.8250000000000028 Cl
atom 13.4600000000000009 13.4600000000000009 13.4600000000000009 Cs
atom 16.8250000000000028 16.8250000000000028 16.8250000000000028 Cl
